(set-info :smt-lib-version 2.6)
(set-logic QF_NIA)
(set-info :source |
Generated by: Cristina Borralleras, Daniel Larraz, Albert Oliveras, Enric Rodriguez-Carbonell, Albert Rubio
Generated on: 2017-04-27
Generator: VeryMax
Application: Termination proving
Target solver: barcelogic
|)
(set-info :license "https://creativecommons.org/licenses/by/4.0/")
(set-info :category "industrial")
(set-info :status sat)
(declare-fun Nl5arg11 () Int)
(declare-fun Nl5arg21 () Int)
(declare-fun Nl5arg31 () Int)
(declare-fun Nl5arg41 () Int)
(declare-fun Nl5arg51 () Int)
(declare-fun Nl5arg61 () Int)
(declare-fun Nl5arg12 () Int)
(declare-fun Nl5arg22 () Int)
(declare-fun Nl5arg32 () Int)
(declare-fun Nl5arg42 () Int)
(declare-fun Nl5arg52 () Int)
(declare-fun Nl5arg62 () Int)
(declare-fun lam0n0 () Int)
(declare-fun lam0n1 () Int)
(declare-fun lam0n2 () Int)
(declare-fun lam0n3 () Int)
(declare-fun lam0n4 () Int)
(declare-fun lam0n5 () Int)
(declare-fun lam0n6 () Int)
(declare-fun lam0n7 () Int)
(declare-fun lam0n10 () Int)
(declare-fun lam0n11 () Int)
(declare-fun Nl5CT1 () Int)
(declare-fun Nl5CT2 () Int)
(declare-fun lam0n8 () Int)
(declare-fun lam0n9 () Int)
(declare-fun lam1n0 () Int)
(declare-fun lam1n1 () Int)
(declare-fun lam1n2 () Int)
(declare-fun lam1n3 () Int)
(declare-fun lam1n4 () Int)
(declare-fun lam1n5 () Int)
(declare-fun lam1n6 () Int)
(declare-fun lam1n7 () Int)
(declare-fun lam1n10 () Int)
(declare-fun lam1n11 () Int)
(declare-fun lam1n8 () Int)
(declare-fun lam1n9 () Int)
(declare-fun lam2n0 () Int)
(declare-fun lam2n1 () Int)
(declare-fun lam2n2 () Int)
(declare-fun lam2n3 () Int)
(declare-fun lam2n4 () Int)
(declare-fun lam2n5 () Int)
(declare-fun lam2n6 () Int)
(declare-fun lam2n7 () Int)
(declare-fun lam2n10 () Int)
(declare-fun lam2n11 () Int)
(declare-fun lam2n8 () Int)
(declare-fun lam2n9 () Int)
(declare-fun lam3n0 () Int)
(declare-fun lam3n1 () Int)
(declare-fun lam3n2 () Int)
(declare-fun lam3n3 () Int)
(declare-fun lam3n4 () Int)
(declare-fun lam3n5 () Int)
(declare-fun lam3n6 () Int)
(declare-fun lam3n7 () Int)
(declare-fun lam3n8 () Int)
(declare-fun lam3n9 () Int)
(declare-fun lam3n10 () Int)
(declare-fun lam3n11 () Int)
(declare-fun lam3n12 () Int)
(declare-fun lam3n13 () Int)
(declare-fun lam4n0 () Int)
(declare-fun lam4n1 () Int)
(declare-fun lam4n2 () Int)
(declare-fun lam4n3 () Int)
(declare-fun lam4n4 () Int)
(declare-fun lam4n5 () Int)
(declare-fun lam4n6 () Int)
(declare-fun lam4n7 () Int)
(declare-fun lam4n8 () Int)
(declare-fun lam4n9 () Int)
(declare-fun lam4n10 () Int)
(declare-fun lam4n11 () Int)
(declare-fun lam4n12 () Int)
(declare-fun lam4n13 () Int)
(declare-fun lam5n0 () Int)
(declare-fun lam5n1 () Int)
(declare-fun lam5n2 () Int)
(declare-fun lam5n3 () Int)
(declare-fun lam5n4 () Int)
(declare-fun lam5n5 () Int)
(declare-fun lam5n6 () Int)
(declare-fun lam5n7 () Int)
(declare-fun lam5n8 () Int)
(declare-fun lam5n9 () Int)
(declare-fun lam5n10 () Int)
(declare-fun lam5n11 () Int)
(declare-fun lam5n12 () Int)
(declare-fun lam5n13 () Int)
(declare-fun lam6n0 () Int)
(declare-fun lam6n1 () Int)
(declare-fun lam6n2 () Int)
(declare-fun lam6n3 () Int)
(declare-fun lam6n4 () Int)
(declare-fun lam6n5 () Int)
(declare-fun lam6n6 () Int)
(declare-fun lam6n7 () Int)
(declare-fun lam6n8 () Int)
(declare-fun lam6n9 () Int)
(declare-fun lam6n10 () Int)
(declare-fun lam6n11 () Int)
(declare-fun lam6n12 () Int)
(declare-fun lam6n13 () Int)
(declare-fun lam7n0 () Int)
(declare-fun lam7n1 () Int)
(declare-fun lam7n2 () Int)
(declare-fun lam7n3 () Int)
(declare-fun lam7n4 () Int)
(declare-fun lam7n5 () Int)
(declare-fun lam7n6 () Int)
(declare-fun lam7n7 () Int)
(declare-fun lam7n8 () Int)
(declare-fun lam7n9 () Int)
(declare-fun lam7n10 () Int)
(declare-fun lam7n11 () Int)
(declare-fun lam7n12 () Int)
(declare-fun lam7n13 () Int)
(declare-fun lam8n0 () Int)
(declare-fun lam8n1 () Int)
(declare-fun lam8n2 () Int)
(declare-fun lam8n3 () Int)
(declare-fun lam8n4 () Int)
(declare-fun lam8n5 () Int)
(declare-fun lam8n6 () Int)
(declare-fun lam8n7 () Int)
(declare-fun lam8n8 () Int)
(declare-fun lam8n9 () Int)
(declare-fun lam8n10 () Int)
(declare-fun lam8n11 () Int)
(declare-fun lam8n12 () Int)
(declare-fun lam8n13 () Int)
(declare-fun lam9n0 () Int)
(declare-fun lam9n1 () Int)
(declare-fun lam9n2 () Int)
(declare-fun lam9n3 () Int)
(declare-fun lam9n4 () Int)
(declare-fun lam9n5 () Int)
(declare-fun lam9n6 () Int)
(declare-fun lam9n7 () Int)
(declare-fun lam9n8 () Int)
(declare-fun lam9n9 () Int)
(declare-fun lam9n10 () Int)
(declare-fun lam9n11 () Int)
(declare-fun lam9n12 () Int)
(declare-fun lam9n13 () Int)
(declare-fun lam10n0 () Int)
(declare-fun lam10n1 () Int)
(declare-fun lam10n2 () Int)
(declare-fun lam10n3 () Int)
(declare-fun lam10n4 () Int)
(declare-fun lam10n5 () Int)
(declare-fun lam10n6 () Int)
(declare-fun lam10n7 () Int)
(declare-fun lam10n8 () Int)
(declare-fun lam10n9 () Int)
(declare-fun lam10n10 () Int)
(declare-fun lam10n11 () Int)
(declare-fun lam10n12 () Int)
(declare-fun lam10n13 () Int)
(declare-fun lam11n0 () Int)
(declare-fun lam11n1 () Int)
(declare-fun lam11n2 () Int)
(declare-fun lam11n3 () Int)
(declare-fun lam11n4 () Int)
(declare-fun lam11n5 () Int)
(declare-fun lam11n6 () Int)
(declare-fun lam11n7 () Int)
(declare-fun lam11n8 () Int)
(declare-fun lam11n9 () Int)
(declare-fun lam11n10 () Int)
(declare-fun lam11n11 () Int)
(declare-fun lam11n12 () Int)
(declare-fun lam11n13 () Int)
(declare-fun lam12n0 () Int)
(declare-fun lam12n1 () Int)
(declare-fun lam12n2 () Int)
(declare-fun lam12n3 () Int)
(declare-fun lam12n4 () Int)
(declare-fun lam12n5 () Int)
(declare-fun lam12n6 () Int)
(declare-fun lam12n7 () Int)
(declare-fun lam12n8 () Int)
(declare-fun lam12n9 () Int)
(declare-fun lam12n10 () Int)
(declare-fun lam12n11 () Int)
(declare-fun lam12n12 () Int)
(declare-fun lam12n13 () Int)
(declare-fun lam13n0 () Int)
(declare-fun lam13n1 () Int)
(declare-fun lam13n2 () Int)
(declare-fun lam13n3 () Int)
(declare-fun lam13n4 () Int)
(declare-fun lam13n5 () Int)
(declare-fun lam13n6 () Int)
(declare-fun lam13n7 () Int)
(declare-fun lam13n8 () Int)
(declare-fun lam13n9 () Int)
(declare-fun lam13n10 () Int)
(declare-fun lam13n11 () Int)
(declare-fun lam13n12 () Int)
(declare-fun lam13n13 () Int)
(declare-fun lam14n0 () Int)
(declare-fun lam14n1 () Int)
(declare-fun lam14n2 () Int)
(declare-fun lam14n3 () Int)
(declare-fun lam14n4 () Int)
(declare-fun lam14n5 () Int)
(declare-fun lam14n6 () Int)
(declare-fun lam14n7 () Int)
(declare-fun lam14n8 () Int)
(declare-fun lam14n9 () Int)
(declare-fun lam14n10 () Int)
(declare-fun lam14n11 () Int)
(declare-fun lam14n12 () Int)
(declare-fun lam14n13 () Int)
(declare-fun lam15n0 () Int)
(declare-fun lam15n1 () Int)
(declare-fun lam15n2 () Int)
(declare-fun lam15n3 () Int)
(declare-fun lam15n4 () Int)
(declare-fun lam15n5 () Int)
(declare-fun lam15n6 () Int)
(declare-fun lam15n7 () Int)
(declare-fun lam15n8 () Int)
(declare-fun lam15n9 () Int)
(declare-fun lam15n10 () Int)
(declare-fun lam15n11 () Int)
(declare-fun lam15n12 () Int)
(declare-fun lam15n13 () Int)
(declare-fun lam16n0 () Int)
(declare-fun lam16n1 () Int)
(declare-fun lam16n2 () Int)
(declare-fun lam16n3 () Int)
(declare-fun lam16n4 () Int)
(declare-fun lam16n5 () Int)
(declare-fun lam16n6 () Int)
(declare-fun lam16n7 () Int)
(declare-fun lam16n8 () Int)
(declare-fun lam16n9 () Int)
(declare-fun lam16n10 () Int)
(declare-fun lam16n11 () Int)
(declare-fun lam16n12 () Int)
(declare-fun lam16n13 () Int)
(declare-fun lam17n0 () Int)
(declare-fun lam17n1 () Int)
(declare-fun lam17n2 () Int)
(declare-fun lam17n3 () Int)
(declare-fun lam17n4 () Int)
(declare-fun lam17n5 () Int)
(declare-fun lam17n6 () Int)
(declare-fun lam17n7 () Int)
(declare-fun lam17n8 () Int)
(declare-fun lam17n9 () Int)
(declare-fun lam17n10 () Int)
(declare-fun lam17n11 () Int)
(declare-fun lam17n12 () Int)
(declare-fun lam17n13 () Int)
(declare-fun lam18n0 () Int)
(declare-fun lam18n1 () Int)
(declare-fun lam18n2 () Int)
(declare-fun lam18n3 () Int)
(declare-fun lam18n4 () Int)
(declare-fun lam18n5 () Int)
(declare-fun lam18n6 () Int)
(declare-fun lam18n7 () Int)
(declare-fun lam18n8 () Int)
(declare-fun lam18n9 () Int)
(declare-fun lam18n10 () Int)
(declare-fun lam18n11 () Int)
(declare-fun lam18n12 () Int)
(declare-fun lam18n13 () Int)
(declare-fun undef123 () Int)
(declare-fun undef7 () Int)
(declare-fun undef8 () Int)
(declare-fun undef9 () Int)
(declare-fun undef11 () Int)
(declare-fun undef65 () Int)
(declare-fun undef70 () Int)
(declare-fun undef71 () Int)
(declare-fun undef73 () Int)
(declare-fun undef124 () Int)
(declare-fun undef10 () Int)
(declare-fun undef74 () Int)
(declare-fun undef12 () Int)
(declare-fun undef72 () Int)
(declare-fun undef93 () Int)
(declare-fun undef94 () Int)
(declare-fun undef95 () Int)
(declare-fun undef97 () Int)
(declare-fun undef96 () Int)
(declare-fun undef98 () Int)
(declare-fun undef30 () Int)
(declare-fun undef31 () Int)
(declare-fun undef32 () Int)
(declare-fun undef34 () Int)
(declare-fun undef33 () Int)
(declare-fun undef35 () Int)
(declare-fun undef58 () Int)
(declare-fun undef59 () Int)
(declare-fun undef60 () Int)
(declare-fun undef62 () Int)
(declare-fun undef63 () Int)
(declare-fun undef61 () Int)
(declare-fun undef81 () Int)
(declare-fun undef82 () Int)
(declare-fun undef83 () Int)
(declare-fun undef85 () Int)
(declare-fun undef84 () Int)
(declare-fun undef86 () Int)
(declare-fun FV_arg1_1 () Int)
(declare-fun FV_arg2_1 () Int)
(declare-fun FV_arg3_1 () Int)
(declare-fun FV_arg4_1 () Int)
(declare-fun FV_arg5_1 () Int)
(declare-fun FV_arg6_1 () Int)
(declare-fun lam19n0 () Int)
(declare-fun lam19n1 () Int)
(declare-fun lam19n2 () Int)
(declare-fun lam19n3 () Int)
(declare-fun lam19n4 () Int)
(declare-fun lam19n5 () Int)
(declare-fun lam19n6 () Int)
(declare-fun lam19n7 () Int)
(declare-fun lam19n8 () Int)
(declare-fun lam19n9 () Int)
(declare-fun lam19n10 () Int)
(declare-fun lam20n0 () Int)
(declare-fun lam20n1 () Int)
(declare-fun lam20n2 () Int)
(declare-fun lam20n3 () Int)
(declare-fun lam20n4 () Int)
(declare-fun lam20n5 () Int)
(declare-fun lam20n6 () Int)
(declare-fun lam20n7 () Int)
(declare-fun lam20n8 () Int)
(declare-fun lam20n9 () Int)
(declare-fun lam20n10 () Int)
(declare-fun lam20n11 () Int)
(declare-fun lam21n0 () Int)
(declare-fun lam21n1 () Int)
(declare-fun lam21n2 () Int)
(declare-fun lam21n3 () Int)
(declare-fun lam21n4 () Int)
(declare-fun lam21n5 () Int)
(declare-fun lam21n6 () Int)
(declare-fun lam21n7 () Int)
(declare-fun lam21n8 () Int)
(declare-fun lam21n9 () Int)
(declare-fun lam21n10 () Int)
(declare-fun lam21n11 () Int)
(declare-fun lam22n0 () Int)
(declare-fun lam22n1 () Int)
(declare-fun lam22n2 () Int)
(declare-fun lam22n3 () Int)
(declare-fun lam22n4 () Int)
(declare-fun lam22n5 () Int)
(declare-fun lam22n6 () Int)
(declare-fun lam22n7 () Int)
(declare-fun lam22n8 () Int)
(declare-fun lam22n9 () Int)
(declare-fun lam22n10 () Int)
(declare-fun lam22n11 () Int)
(declare-fun lam23n0 () Int)
(declare-fun lam23n1 () Int)
(declare-fun lam23n2 () Int)
(declare-fun lam23n3 () Int)
(declare-fun lam23n4 () Int)
(declare-fun lam23n5 () Int)
(declare-fun lam23n6 () Int)
(declare-fun lam23n7 () Int)
(declare-fun lam23n8 () Int)
(declare-fun lam23n10 () Int)
(declare-fun lam23n11 () Int)
(declare-fun lam23n9 () Int)
(declare-fun FV_arg1_2 () Int)
(declare-fun FV_arg5_2 () Int)
(declare-fun FV_arg6_2 () Int)
(declare-fun FV_arg3_2 () Int)
(declare-fun FV_arg4_2 () Int)
(declare-fun FV_arg2_2 () Int)
(assert ( and ( <= ( - 1 ) Nl5arg11 ) ( <= Nl5arg11 1 ) ( <= ( - 1 ) Nl5arg21 ) ( <= Nl5arg21 1 ) ( <= ( - 1 ) Nl5arg31 ) ( <= Nl5arg31 1 ) ( <= ( - 1 ) Nl5arg41 ) ( <= Nl5arg41 1 ) ( <= ( - 1 ) Nl5arg51 ) ( <= Nl5arg51 1 ) ( <= ( - 1 ) Nl5arg61 ) ( <= Nl5arg61 1 ) ( <= ( - 1 ) Nl5arg12 ) ( <= Nl5arg12 1 ) ( <= ( - 1 ) Nl5arg22 ) ( <= Nl5arg22 1 ) ( <= ( - 1 ) Nl5arg32 ) ( <= Nl5arg32 1 ) ( <= ( - 1 ) Nl5arg42 ) ( <= Nl5arg42 1 ) ( <= ( - 1 ) Nl5arg52 ) ( <= Nl5arg52 1 ) ( <= ( - 1 ) Nl5arg62 ) ( <= Nl5arg62 1 ) ))
(assert ( or ( and ( >= lam0n0 0 ) ( >= lam0n1 0 ) ( >= lam0n2 0 ) ( >= lam0n3 0 ) ( >= lam0n4 0 ) ( >= lam0n5 0 ) ( >= lam0n6 0 ) ( >= lam0n7 0 ) ( >= lam0n10 0 ) ( >= lam0n11 0 ) ( > ( + ( * 1 lam0n0 ) ( * 1 lam0n1 ) ( * 1 lam0n2 ) ( * 1 lam0n3 ) ( * Nl5CT1 lam0n10 ) ( * Nl5CT2 lam0n11 ) ( - 1 ) ) 0 ) ( = ( + ( * 1 lam0n0 ) ( * 1 lam0n4 ) ( * 1 lam0n5 ) ( * Nl5arg11 lam0n10 ) ( * Nl5arg12 lam0n11 ) ) 0 ) ( = ( + ( * Nl5arg21 lam0n10 ) ( * Nl5arg22 lam0n11 ) ) 0 ) ( = ( + ( * 1 lam0n1 ) ( * 1 lam0n2 ) ( * ( - 1 ) lam0n5 ) ( * 1 lam0n6 ) ( * ( - 1 ) lam0n7 ) ( * 1 lam0n8 ) ( * Nl5arg31 lam0n10 ) ( * Nl5arg32 lam0n11 ) ) 0 ) ( = ( + ( * ( - 1 ) lam0n1 ) ( * ( - 1 ) lam0n7 ) ( * 1 lam0n9 ) ( * Nl5arg41 lam0n10 ) ( * Nl5arg42 lam0n11 ) ) 0 ) ( = ( + ( * 1 lam0n0 ) ( * 1 lam0n3 ) ( * 1 lam0n5 ) ( * 1 lam0n7 ) ( * ( - 1 ) lam0n8 ) ( * Nl5arg51 lam0n10 ) ( * Nl5arg52 lam0n11 ) ) 0 ) ( = ( + ( * ( - 1 ) lam0n0 ) ( * ( - 1 ) lam0n2 ) ( * ( - 1 ) lam0n3 ) ( * 1 lam0n7 ) ( * ( - 1 ) lam0n9 ) ( * Nl5arg61 lam0n10 ) ( * Nl5arg62 lam0n11 ) ) 0 ) ) ( and ( >= lam1n0 0 ) ( >= lam1n1 0 ) ( >= lam1n2 0 ) ( >= lam1n3 0 ) ( >= lam1n4 0 ) ( >= lam1n5 0 ) ( >= lam1n6 0 ) ( >= lam1n7 0 ) ( >= lam1n10 0 ) ( >= lam1n11 0 ) ( > ( + ( * 1 lam1n0 ) ( * 1 lam1n1 ) ( * 1 lam1n2 ) ( * 1 lam1n3 ) ( * Nl5CT1 lam1n10 ) ( * Nl5CT2 lam1n11 ) ( - 1 ( + ( + ( + Nl5CT1 ( * Nl5arg31 0 ) ) ( * Nl5arg51 0 ) ) ( * Nl5arg61 0 ) ) ) ) 0 ) ( = ( + ( * 1 lam1n0 ) ( * 1 lam1n4 ) ( * 1 lam1n5 ) ( * Nl5arg11 lam1n10 ) ( * Nl5arg12 lam1n11 ) ( - ( + ( + ( + 0 Nl5arg11 ) ( * Nl5arg31 1 ) ) ( * Nl5arg51 1 ) ) ) ) 0 ) ( = ( + ( * Nl5arg21 lam1n10 ) ( * Nl5arg22 lam1n11 ) ( - ( + 0 Nl5arg21 ) ) ) 0 ) ( = ( + ( * 1 lam1n1 ) ( * 1 lam1n2 ) ( * ( - 1 ) lam1n5 ) ( * 1 lam1n6 ) ( * ( - 1 ) lam1n7 ) ( * 1 lam1n8 ) ( * Nl5arg31 lam1n10 ) ( * Nl5arg32 lam1n11 ) ( - ( + ( + 0 ( * Nl5arg31 1 ) ) ( * Nl5arg51 1 ) ) ) ) 0 ) ( = ( + ( * ( - 1 ) lam1n1 ) ( * ( - 1 ) lam1n7 ) ( * 1 lam1n9 ) ( * Nl5arg41 lam1n10 ) ( * Nl5arg42 lam1n11 ) ( - ( + ( + 0 Nl5arg41 ) ( * Nl5arg61 1 ) ) ) ) 0 ) ( = ( + ( * 1 lam1n0 ) ( * 1 lam1n3 ) ( * 1 lam1n5 ) ( * 1 lam1n7 ) ( * ( - 1 ) lam1n8 ) ( * Nl5arg51 lam1n10 ) ( * Nl5arg52 lam1n11 ) ) 0 ) ( = ( + ( * ( - 1 ) lam1n0 ) ( * ( - 1 ) lam1n2 ) ( * ( - 1 ) lam1n3 ) ( * 1 lam1n7 ) ( * ( - 1 ) lam1n9 ) ( * Nl5arg61 lam1n10 ) ( * Nl5arg62 lam1n11 ) ) 0 ) ) ))
(assert ( or ( and ( >= lam0n0 0 ) ( >= lam0n1 0 ) ( >= lam0n2 0 ) ( >= lam0n3 0 ) ( >= lam0n4 0 ) ( >= lam0n5 0 ) ( >= lam0n6 0 ) ( >= lam0n7 0 ) ( >= lam0n10 0 ) ( >= lam0n11 0 ) ( > ( + ( * 1 lam0n0 ) ( * 1 lam0n1 ) ( * 1 lam0n2 ) ( * 1 lam0n3 ) ( * Nl5CT1 lam0n10 ) ( * Nl5CT2 lam0n11 ) ( - 1 ) ) 0 ) ( = ( + ( * 1 lam0n0 ) ( * 1 lam0n4 ) ( * 1 lam0n5 ) ( * Nl5arg11 lam0n10 ) ( * Nl5arg12 lam0n11 ) ) 0 ) ( = ( + ( * Nl5arg21 lam0n10 ) ( * Nl5arg22 lam0n11 ) ) 0 ) ( = ( + ( * 1 lam0n1 ) ( * 1 lam0n2 ) ( * ( - 1 ) lam0n5 ) ( * 1 lam0n6 ) ( * ( - 1 ) lam0n7 ) ( * 1 lam0n8 ) ( * Nl5arg31 lam0n10 ) ( * Nl5arg32 lam0n11 ) ) 0 ) ( = ( + ( * ( - 1 ) lam0n1 ) ( * ( - 1 ) lam0n7 ) ( * 1 lam0n9 ) ( * Nl5arg41 lam0n10 ) ( * Nl5arg42 lam0n11 ) ) 0 ) ( = ( + ( * 1 lam0n0 ) ( * 1 lam0n3 ) ( * 1 lam0n5 ) ( * 1 lam0n7 ) ( * ( - 1 ) lam0n8 ) ( * Nl5arg51 lam0n10 ) ( * Nl5arg52 lam0n11 ) ) 0 ) ( = ( + ( * ( - 1 ) lam0n0 ) ( * ( - 1 ) lam0n2 ) ( * ( - 1 ) lam0n3 ) ( * 1 lam0n7 ) ( * ( - 1 ) lam0n9 ) ( * Nl5arg61 lam0n10 ) ( * Nl5arg62 lam0n11 ) ) 0 ) ) ( and ( >= lam2n0 0 ) ( >= lam2n1 0 ) ( >= lam2n2 0 ) ( >= lam2n3 0 ) ( >= lam2n4 0 ) ( >= lam2n5 0 ) ( >= lam2n6 0 ) ( >= lam2n7 0 ) ( >= lam2n10 0 ) ( >= lam2n11 0 ) ( > ( + ( * 1 lam2n0 ) ( * 1 lam2n1 ) ( * 1 lam2n2 ) ( * 1 lam2n3 ) ( * Nl5CT1 lam2n10 ) ( * Nl5CT2 lam2n11 ) ( - 1 ( + ( + ( + Nl5CT2 ( * Nl5arg32 0 ) ) ( * Nl5arg52 0 ) ) ( * Nl5arg62 0 ) ) ) ) 0 ) ( = ( + ( * 1 lam2n0 ) ( * 1 lam2n4 ) ( * 1 lam2n5 ) ( * Nl5arg11 lam2n10 ) ( * Nl5arg12 lam2n11 ) ( - ( + ( + ( + 0 Nl5arg12 ) ( * Nl5arg32 1 ) ) ( * Nl5arg52 1 ) ) ) ) 0 ) ( = ( + ( * Nl5arg21 lam2n10 ) ( * Nl5arg22 lam2n11 ) ( - ( + 0 Nl5arg22 ) ) ) 0 ) ( = ( + ( * 1 lam2n1 ) ( * 1 lam2n2 ) ( * ( - 1 ) lam2n5 ) ( * 1 lam2n6 ) ( * ( - 1 ) lam2n7 ) ( * 1 lam2n8 ) ( * Nl5arg31 lam2n10 ) ( * Nl5arg32 lam2n11 ) ( - ( + ( + 0 ( * Nl5arg32 1 ) ) ( * Nl5arg52 1 ) ) ) ) 0 ) ( = ( + ( * ( - 1 ) lam2n1 ) ( * ( - 1 ) lam2n7 ) ( * 1 lam2n9 ) ( * Nl5arg41 lam2n10 ) ( * Nl5arg42 lam2n11 ) ( - ( + ( + 0 Nl5arg42 ) ( * Nl5arg62 1 ) ) ) ) 0 ) ( = ( + ( * 1 lam2n0 ) ( * 1 lam2n3 ) ( * 1 lam2n5 ) ( * 1 lam2n7 ) ( * ( - 1 ) lam2n8 ) ( * Nl5arg51 lam2n10 ) ( * Nl5arg52 lam2n11 ) ) 0 ) ( = ( + ( * ( - 1 ) lam2n0 ) ( * ( - 1 ) lam2n2 ) ( * ( - 1 ) lam2n3 ) ( * 1 lam2n7 ) ( * ( - 1 ) lam2n9 ) ( * Nl5arg61 lam2n10 ) ( * Nl5arg62 lam2n11 ) ) 0 ) ) ))
(assert ( and ( <= ( + Nl5CT1 ( * Nl5arg11 FV_arg1_1 ) ( * Nl5arg21 FV_arg2_1 ) ( * Nl5arg31 FV_arg3_1 ) ( * Nl5arg41 FV_arg4_1 ) ( * Nl5arg51 FV_arg5_1 ) ( * Nl5arg61 FV_arg6_1 ) ) 0 ) ( <= ( + Nl5CT2 ( * Nl5arg12 FV_arg1_1 ) ( * Nl5arg22 FV_arg2_1 ) ( * Nl5arg32 FV_arg3_1 ) ( * Nl5arg42 FV_arg4_1 ) ( * Nl5arg52 FV_arg5_1 ) ( * Nl5arg62 FV_arg6_1 ) ) 0 ) ( <= ( + 1 FV_arg3_1 ( * ( - 1 ) FV_arg6_1 ) ) 0 ) ( <= ( + FV_arg1_1 ( * ( - 1 ) FV_arg3_1 ) FV_arg5_1 ) 0 ) ( <= ( + FV_arg3_1 ( * ( - 1 ) FV_arg5_1 ) ) 0 ) ( <= ( + ( * ( - 1 ) FV_arg3_1 ) ( * ( - 1 ) FV_arg4_1 ) FV_arg5_1 FV_arg6_1 ) 0 ) ))
(assert ( or ( and ( >= lam19n0 0 ) ( >= lam19n1 0 ) ( >= lam19n2 0 ) ( >= lam19n3 0 ) ( >= lam19n4 0 ) ( >= lam19n5 0 ) ( >= lam19n6 0 ) ( >= lam19n7 0 ) ( >= lam19n8 0 ) ( >= lam19n9 0 ) ( >= lam19n10 0 ) ( > ( + ( * 1 lam19n0 ) ( * 1 lam19n1 ) ( * 1 lam19n2 ) ( * 1 lam19n3 ) ( * 1 lam19n4 ) ( * Nl5CT1 lam19n9 ) ( * Nl5CT2 lam19n10 ) ( - 1 ) ) 0 ) ( = ( + ( * 1 lam19n0 ) ( * 1 lam19n5 ) ( * 1 lam19n6 ) ( * Nl5arg11 lam19n9 ) ( * Nl5arg12 lam19n10 ) ) 0 ) ( = ( + ( * Nl5arg21 lam19n9 ) ( * Nl5arg22 lam19n10 ) ) 0 ) ( = ( + ( * 1 lam19n1 ) ( * 1 lam19n2 ) ( * 1 lam19n3 ) ( * ( - 1 ) lam19n6 ) ( * ( - 1 ) lam19n7 ) ( * Nl5arg31 lam19n9 ) ( * Nl5arg32 lam19n10 ) ) 0 ) ( = ( + ( * ( - 1 ) lam19n1 ) ( * ( - 1 ) lam19n4 ) ( * ( - 1 ) lam19n7 ) ( * Nl5arg41 lam19n9 ) ( * Nl5arg42 lam19n10 ) ) 0 ) ( = ( + ( * 1 lam19n0 ) ( * ( - 1 ) lam19n2 ) ( * 1 lam19n6 ) ( * 1 lam19n7 ) ( * ( - 1 ) lam19n8 ) ( * Nl5arg51 lam19n9 ) ( * Nl5arg52 lam19n10 ) ) 0 ) ( = ( + ( * ( - 1 ) lam19n0 ) ( * ( - 1 ) lam19n3 ) ( * 1 lam19n4 ) ( * 1 lam19n7 ) ( * 1 lam19n8 ) ( * Nl5arg61 lam19n9 ) ( * Nl5arg62 lam19n10 ) ) 0 ) ) ( and ( >= lam20n0 0 ) ( >= lam20n1 0 ) ( >= lam20n2 0 ) ( >= lam20n3 0 ) ( >= lam20n4 0 ) ( >= lam20n5 0 ) ( >= lam20n6 0 ) ( >= lam20n7 0 ) ( >= lam20n8 0 ) ( >= lam20n9 0 ) ( >= lam20n10 0 ) ( >= lam20n11 0 ) ( > ( + ( * 1 lam20n0 ) ( * 1 lam20n1 ) ( * 1 lam20n2 ) ( * 1 lam20n3 ) ( * 1 lam20n4 ) ( * Nl5CT1 lam20n10 ) ( * Nl5CT2 lam20n11 ) ( - 1 ) ) 0 ) ( = ( + ( * 1 lam20n0 ) ( * 1 lam20n5 ) ( * 1 lam20n6 ) ( * Nl5arg11 lam20n10 ) ( * Nl5arg12 lam20n11 ) ) 0 ) ( = ( + ( * Nl5arg21 lam20n10 ) ( * Nl5arg22 lam20n11 ) ) 0 ) ( = ( + ( * 1 lam20n1 ) ( * 1 lam20n2 ) ( * ( - 1 ) lam20n3 ) ( * ( - 1 ) lam20n6 ) ( * 1 lam20n7 ) ( * ( - 1 ) lam20n8 ) ( * Nl5arg31 lam20n10 ) ( * Nl5arg32 lam20n11 ) ) 0 ) ( = ( + ( * ( - 1 ) lam20n1 ) ( * ( - 1 ) lam20n8 ) ( * 1 lam20n9 ) ( * Nl5arg41 lam20n10 ) ( * Nl5arg42 lam20n11 ) ) 0 ) ( = ( + ( * 1 lam20n0 ) ( * 1 lam20n4 ) ( * 1 lam20n6 ) ( * ( - 1 ) lam20n7 ) ( * 1 lam20n8 ) ( * Nl5arg51 lam20n10 ) ( * Nl5arg52 lam20n11 ) ) 0 ) ( = ( + ( * ( - 1 ) lam20n0 ) ( * ( - 1 ) lam20n2 ) ( * ( - 1 ) lam20n4 ) ( * 1 lam20n8 ) ( * ( - 1 ) lam20n9 ) ( * Nl5arg61 lam20n10 ) ( * Nl5arg62 lam20n11 ) ) 0 ) ) ( and ( >= lam21n0 0 ) ( >= lam21n1 0 ) ( >= lam21n2 0 ) ( >= lam21n3 0 ) ( >= lam21n4 0 ) ( >= lam21n5 0 ) ( >= lam21n6 0 ) ( >= lam21n7 0 ) ( >= lam21n8 0 ) ( >= lam21n9 0 ) ( >= lam21n10 0 ) ( >= lam21n11 0 ) ( > ( + ( * 1 lam21n0 ) ( * 1 lam21n1 ) ( * 1 lam21n2 ) ( * 1 lam21n3 ) ( * 1 lam21n4 ) ( * 1 lam21n5 ) ( * Nl5CT1 lam21n10 ) ( * Nl5CT2 lam21n11 ) ( - 1 ) ) 0 ) ( = ( + ( * 1 lam21n0 ) ( * 1 lam21n6 ) ( * 1 lam21n7 ) ( * Nl5arg11 lam21n10 ) ( * Nl5arg12 lam21n11 ) ) 0 ) ( = ( + ( * Nl5arg21 lam21n10 ) ( * Nl5arg22 lam21n11 ) ) 0 ) ( = ( + ( * 1 lam21n1 ) ( * 1 lam21n2 ) ( * ( - 1 ) lam21n3 ) ( * ( - 1 ) lam21n7 ) ( * 1 lam21n8 ) ( * ( - 1 ) lam21n9 ) ( * Nl5arg31 lam21n10 ) ( * Nl5arg32 lam21n11 ) ) 0 ) ( = ( + ( * ( - 1 ) lam21n1 ) ( * ( - 1 ) lam21n4 ) ( * ( - 1 ) lam21n9 ) ( * Nl5arg41 lam21n10 ) ( * Nl5arg42 lam21n11 ) ) 0 ) ( = ( + ( * 1 lam21n0 ) ( * 1 lam21n5 ) ( * 1 lam21n7 ) ( * ( - 1 ) lam21n8 ) ( * 1 lam21n9 ) ( * Nl5arg51 lam21n10 ) ( * Nl5arg52 lam21n11 ) ) 0 ) ( = ( + ( * ( - 1 ) lam21n0 ) ( * ( - 1 ) lam21n2 ) ( * 1 lam21n4 ) ( * ( - 1 ) lam21n5 ) ( * 1 lam21n9 ) ( * Nl5arg61 lam21n10 ) ( * Nl5arg62 lam21n11 ) ) 0 ) ) ( and ( >= lam22n0 0 ) ( >= lam22n1 0 ) ( >= lam22n2 0 ) ( >= lam22n3 0 ) ( >= lam22n4 0 ) ( >= lam22n5 0 ) ( >= lam22n6 0 ) ( >= lam22n7 0 ) ( >= lam22n8 0 ) ( >= lam22n9 0 ) ( >= lam22n10 0 ) ( >= lam22n11 0 ) ( > ( + ( * 1 lam22n0 ) ( * 1 lam22n1 ) ( * 1 lam22n2 ) ( * 1 lam22n3 ) ( * 1 lam22n4 ) ( * 1 lam22n5 ) ( * Nl5CT1 lam22n10 ) ( * Nl5CT2 lam22n11 ) ( - 1 ) ) 0 ) ( = ( + ( * 1 lam22n0 ) ( * 1 lam22n6 ) ( * 1 lam22n7 ) ( * Nl5arg11 lam22n10 ) ( * Nl5arg12 lam22n11 ) ) 0 ) ( = ( + ( * Nl5arg21 lam22n10 ) ( * Nl5arg22 lam22n11 ) ) 0 ) ( = ( + ( * 1 lam22n1 ) ( * 1 lam22n2 ) ( * 1 lam22n3 ) ( * ( - 1 ) lam22n7 ) ( * 1 lam22n8 ) ( * ( - 1 ) lam22n9 ) ( * Nl5arg31 lam22n10 ) ( * Nl5arg32 lam22n11 ) ) 0 ) ( = ( + ( * ( - 1 ) lam22n1 ) ( * ( - 1 ) lam22n4 ) ( * ( - 1 ) lam22n9 ) ( * Nl5arg41 lam22n10 ) ( * Nl5arg42 lam22n11 ) ) 0 ) ( = ( + ( * 1 lam22n0 ) ( * ( - 1 ) lam22n2 ) ( * 1 lam22n5 ) ( * 1 lam22n7 ) ( * 1 lam22n9 ) ( * Nl5arg51 lam22n10 ) ( * Nl5arg52 lam22n11 ) ) 0 ) ( = ( + ( * ( - 1 ) lam22n0 ) ( * ( - 1 ) lam22n3 ) ( * 1 lam22n4 ) ( * ( - 1 ) lam22n5 ) ( * 1 lam22n9 ) ( * Nl5arg61 lam22n10 ) ( * Nl5arg62 lam22n11 ) ) 0 ) ) ( and ( >= lam23n0 0 ) ( >= lam23n1 0 ) ( >= lam23n2 0 ) ( >= lam23n3 0 ) ( >= lam23n4 0 ) ( >= lam23n5 0 ) ( >= lam23n6 0 ) ( >= lam23n7 0 ) ( >= lam23n8 0 ) ( >= lam23n10 0 ) ( >= lam23n11 0 ) ( > ( + ( * 1 lam23n0 ) ( * 1 lam23n1 ) ( * 1 lam23n2 ) ( * 1 lam23n3 ) ( * 1 lam23n4 ) ( * Nl5CT1 lam23n10 ) ( * Nl5CT2 lam23n11 ) ( - 1 ) ) 0 ) ( = ( + ( * 1 lam23n0 ) ( * 1 lam23n5 ) ( * 1 lam23n6 ) ( * Nl5arg11 lam23n10 ) ( * Nl5arg12 lam23n11 ) ) 0 ) ( = ( + ( * Nl5arg21 lam23n10 ) ( * Nl5arg22 lam23n11 ) ) 0 ) ( = ( + ( * 1 lam23n1 ) ( * 1 lam23n2 ) ( * ( - 1 ) lam23n6 ) ( * 1 lam23n7 ) ( * ( - 1 ) lam23n8 ) ( * 1 lam23n9 ) ( * Nl5arg31 lam23n10 ) ( * Nl5arg32 lam23n11 ) ) 0 ) ( = ( + ( * ( - 1 ) lam23n1 ) ( * ( - 1 ) lam23n3 ) ( * ( - 1 ) lam23n8 ) ( * Nl5arg41 lam23n10 ) ( * Nl5arg42 lam23n11 ) ) 0 ) ( = ( + ( * 1 lam23n0 ) ( * 1 lam23n4 ) ( * 1 lam23n6 ) ( * 1 lam23n8 ) ( * ( - 1 ) lam23n9 ) ( * Nl5arg51 lam23n10 ) ( * Nl5arg52 lam23n11 ) ) 0 ) ( = ( + ( * ( - 1 ) lam23n0 ) ( * ( - 1 ) lam23n2 ) ( * 1 lam23n3 ) ( * ( - 1 ) lam23n4 ) ( * 1 lam23n8 ) ( * Nl5arg61 lam23n10 ) ( * Nl5arg62 lam23n11 ) ) 0 ) ) ))
(assert ( and ( and ( <= ( + Nl5CT1 ( * Nl5arg11 FV_arg1_2 ) ( * Nl5arg51 FV_arg5_2 ) ( * Nl5arg61 FV_arg6_2 ) ( * Nl5arg31 FV_arg3_2 ) ( * Nl5arg41 FV_arg4_2 ) ( * Nl5arg21 FV_arg2_2 ) ) 0 ) ( <= ( + Nl5CT2 ( * Nl5arg12 FV_arg1_2 ) ( * Nl5arg52 FV_arg5_2 ) ( * Nl5arg62 FV_arg6_2 ) ( * Nl5arg32 FV_arg3_2 ) ( * Nl5arg42 FV_arg4_2 ) ( * Nl5arg22 FV_arg2_2 ) ) 0 ) ) ( and ( <= ( + 1 FV_arg1_2 FV_arg5_2 ( * ( - 1 ) FV_arg6_2 ) ) 0 ) ( <= ( + 1 FV_arg3_2 ( * ( - 1 ) FV_arg4_2 ) ) 0 ) ( <= ( + 1 ( * ( - 1 ) FV_arg6_2 ) FV_arg3_2 ) 0 ) ( <= ( + 1 FV_arg5_2 ( * ( - 1 ) FV_arg6_2 ) ) 0 ) ( <= FV_arg1_2 0 ) ( <= ( + FV_arg1_2 FV_arg5_2 ( * ( - 1 ) FV_arg3_2 ) ) 0 ) ( <= FV_arg3_2 0 ) ( <= ( + FV_arg5_2 FV_arg6_2 ( * ( - 1 ) FV_arg3_2 ) ( * ( - 1 ) FV_arg4_2 ) ) 0 ) ( = ( + ( * ( - 1 ) FV_arg5_2 ) FV_arg3_2 ) 0 ) ( = ( + ( * ( - 1 ) FV_arg6_2 ) FV_arg4_2 ) 0 ) ) ))
(check-sat)
(exit)
